cost: 841.39
Route 1:           0    7    4   34    8   47   45   27   16    0
Route 2:           0   48   30   18   11    0
Route 3:           0   19   43    6   33    0
Route 4:           0   29   12   20   17   14    1   15    0
Route 5:           0   35    3   46   32   39    0
Route 6:           0   36   31    5   28   25   10    0
Route 7:           0   42    9   40   26   24   50    0
Route 8:           0   44   37   21   41   38    0
Route 9:           0   49   23   22   13    2    0
